p tw 55 262
0 1
0 2
0 3
0 5
0 10
0 13
0 14
0 18
0 19
0 22
0 49
0 25
0 42
0 51
0 16
0 45
1 2
1 3
1 15
1 16
1 17
1 18
1 19
1 45
1 49
2 3
2 12
2 18
2 25
2 34
3 4
3 5
3 6
3 7
3 22
3 23
3 32
3 46
3 47
3 48
3 13
3 35
3 50
3 51
3 20
3 26
3 36
4 5
4 6
4 7
4 22
4 23
4 13
4 27
4 47
4 49
5 6
5 7
5 10
5 13
5 14
5 28
5 42
5 43
5 44
6 7
6 9
6 11
6 24
6 25
6 8
6 30
6 52
6 22
6 33
6 35
6 46
7 13
7 36
7 37
7 38
7 11
7 16
7 45
7 46
7 8
7 30
7 52
8 9
8 10
8 11
8 12
8 14
8 20
8 21
8 30
8 52
8 15
8 37
8 39
9 10
9 11
9 12
9 14
9 20
9 21
9 24
9 25
10 11
10 12
10 13
10 14
10 35
10 40
10 45
11 12
11 24
11 25
11 16
11 45
11 46
11 35
11 40
12 18
12 25
12 34
13 14
13 36
13 37
13 38
13 35
13 50
13 51
13 27
13 47
13 49
13 21
13 40
13 54
14 20
14 21
14 34
14 35
14 39
14 48
15 16
15 17
15 37
15 39
15 52
16 17
16 45
16 46
16 49
17 30
17 31
17 32
17 33
18 19
18 22
18 49
18 25
18 34
19 26
19 27
19 28
19 29
20 21
20 26
20 32
20 36
21 40
21 54
22 23
22 49
22 33
22 35
22 46
22 25
22 42
22 51
24 25
25 34
25 42
25 51
25 29
25 39
25 41
25 53
26 27
26 28
26 29
26 34
26 35
26 36
26 32
27 28
27 29
27 47
27 49
28 29
28 42
28 43
28 44
29 39
29 40
29 41
29 42
29 53
30 31
30 32
30 33
30 52
31 32
31 33
32 33
32 46
32 47
32 48
32 36
33 35
33 46
34 35
34 36
34 39
34 48
35 36
35 50
35 51
35 39
35 48
35 40
35 45
35 46
36 37
36 38
37 38
37 39
37 52
39 40
39 41
39 42
39 48
39 52
39 53
40 41
40 42
40 45
40 54
41 42
41 53
42 43
42 44
42 51
43 44
45 46
45 49
46 47
46 48
47 48
47 49
50 51
